int NumberPatients = 163
int NumberOfRooms = 15
int NumberSurgeons = 24
int NumberOfDays = 6
Duration = [59,32,79,97,32,66,50,131,103,103,32,32,122,50,244,47,114,47,132,46,72,98,50,105,29,32,35,32,244,119,131,119,119,198,41,317,166,119,119,159,46,103,60,210,159,114,85,217,76,98,31,47,103,78,78,75,46,47,217,47,260,31,47,58,119,85,210,98,112,64,157,88,35,66,32,66,166,60,32,32,32,47,264,66,107,60,131,79,60,53,47,103,198,131,98,72,47,101,32,32,107,103,39,131,103,119,119,59,59,100,263,85,165,98,119,72,159,98,85,38,119,59,131,98,30,32,103,53,98,119,98,227,98,98,166,249,31,47,208,103,244,119,33,32,78,47,97,66,130,217,119,103,79,238,29,210,71,38,98,66,107,32,217];
Priority = [0,0,0,0,0,0,0,0,0,0,0,2,1,0,0,0,0,0,0,0,0,0,0,0,1,0,0,0,0,0,2,0,0,0,0,0,0,0,0,0,0,0,0,0,0,0,0,0,0,0,0,0,0,0,0,0,0,0,0,0,0,0,0,0,0,0,0,0,0,0,0,0,0,0,0,0,0,0,0,0,0,0,0,0,0,0,0,0,0,0,0,0,0,0,0,0,0,0,0,0,0,0,0,0,0,0,0,0,0,0,0,0,1,0,0,0,0,0,0,0,0,0,0,0,0,1,0,0,0,0,0,0,0,0,0,0,0,0,0,0,0,0,0,0,0,0,0,0,0,0,0,0,0,0,0,0,0,0,0,0,0,0,0];
Waiting = [158,24,30,190,38,53,218,52,134,25,190,120,604,186,52,183,39,141,178,99,221,221,39,158,24,73,178,225,60,37,56,107,70,101,79,141,99,163,178,106,53,205,135,32,30,135,256,52,64,169,184,121,32,32,366,70,123,261,507,25,410,480,190,120,261,186,113,60,354,134,107,66,164,113,37,116,228,225,267,389,164,281,186,366,52,178,261,50,46,57,63,518,410,134,190,74,366,227,45,480,242,186,36,316,120,56,46,141,438,155,37,198,172,73,81,312,73,135,25,164,128,60,115,116,178,141,70,24,65,289,218,107,87,57,120,95,193,158,172,196,39,72,46,36,464,37,24,289,148,25,120,37,22,169,39,50,284,319,480,316,85,324,52];
Surgeon = [5,2,8,1,3,1,5,1,8,1,1,2,4,3,1,4,3,5,1,8,2,5,14,3,3,3,5,10,2,10,15,3,7,4,6,4,2,7,4,5,5,8,4,1,4,1,1,1,7,5,5,10,10,13,2,8,8,1,7,4,1,6,4,4,9,6,1,1,1,6,2,6,3,10,3,1,5,2,1,9,5,8,3,5,1,3,5,3,1,5,1,4,3,3,7,1,1,17,8,11,9,1,3,1,4,8,2,1,2,4,3,6,3,5,3,1,7,2,3,3,7,1,8,5,5,2,2,3,3,15,1,6,4,2,10,6,6,3,5,6,7,2,4,3,8,1,3,3,6,7,5,9,1,1,17,1,16,11,4,3,13,2,2];
BlockAvailability = [[[0,0],[0,0],[0,0],[0,0],[0,0],[0,0],[0,0],[1,1],[0,0],[1,0],[1,0],[0,0],[1,0],[0,0],[1,0]],[[1,0],[0,1],[0,0],[0,1],[0,0],[0,0],[0,0],[0,1],[0,1],[0,0],[0,1],[1,0],[1,0],[0,0],[0,0]],[[1,0],[0,1],[0,0],[1,0],[0,0],[1,0],[0,0],[0,0],[0,0],[0,1],[0,1],[1,0],[0,0],[0,0],[0,0]],[[0,1],[0,0],[0,0],[1,1],[0,1],[0,1],[0,0],[1,0],[0,0],[0,0],[0,0],[0,1],[0,0],[0,0],[1,1]],[[1,0],[0,0],[1,0],[0,0],[1,0],[0,1],[0,0],[0,0],[0,1],[0,0],[0,0],[0,0],[0,0],[0,0],[0,0]],[[0,0],[0,0],[0,0],[0,1],[0,1],[1,0],[1,1],[0,1],[0,0],[0,0],[0,0],[0,0],[0,1],[0,0],[0,1]]];
SurgeonAvailability = [[[1,0],[0,0],[1,1],[1,0],[1,1],[1,1]],[[1,1],[1,1],[1,1],[1,0],[0,1],[1,1]],[[1,1],[1,1],[0,1],[0,0],[1,1],[1,1]],[[0,0],[1,1],[1,0],[1,1],[1,1],[1,1]],[[1,1],[1,1],[0,1],[0,1],[0,1],[1,1]],[[1,1],[1,1],[1,1],[1,1],[1,1],[1,1]],[[1,1],[1,1],[1,0],[0,1],[1,1],[1,0]],[[1,0],[1,1],[1,1],[1,0],[0,1],[1,1]],[[1,1],[1,1],[0,1],[1,1],[1,1],[1,1]],[[0,0],[1,1],[0,0],[1,1],[0,1],[0,1]],[[1,1],[1,0],[1,1],[1,1],[0,1],[1,1]],[[1,1],[1,1],[1,1],[1,0],[1,1],[1,1]],[[1,1],[1,1],[0,1],[1,1],[1,1],[1,1]],[[1,1],[0,1],[1,1],[1,1],[1,1],[1,1]],[[1,1],[1,0],[1,0],[1,0],[1,1],[1,1]],[[0,0],[1,1],[1,1],[1,1],[1,1],[1,1]],[[1,1],[1,0],[1,1],[1,0],[0,1],[0,1]],[[0,1],[1,1],[0,1],[1,1],[0,1],[0,1]],[[1,1],[1,1],[1,0],[0,1],[1,1],[1,1]],[[1,1],[0,1],[1,1],[1,1],[1,1],[1,1]],[[1,1],[1,1],[1,1],[1,1],[1,1],[1,1]],[[1,1],[0,1],[1,1],[1,0],[1,1],[1,1]],[[1,0],[1,1],[1,1],[1,1],[1,1],[1,1]],[[0,1],[1,0],[1,1],[1,1],[1,1],[1,1]]];
